# Objective value = 1.1704249896219340e+04
I_0_0 1251
I_0_1 1.5070000006521104e+03
I_0_2 1.5060000059568426e+03
I_0_3 1.6099999886922944e+03
I_0_4 1.4640000156153808e+03
I_0_5 1.4799999466923150e+03
I_0_6 1.9909999466923150e+03
I_1_0 51
I_1_1 51
I_1_2 0
I_1_3 51
I_1_4 2.7461535862853910e-05
I_1_5 51
I_1_6 0
I_2_0 78
I_2_1 2.3485873870698666e-06
I_2_2 78
I_2_3 78
I_2_4 0
I_2_5 78
I_2_6 0
I_3_0 12
I_3_1 12
I_3_2 0
I_3_3 12
I_3_4 1.1297629498585593e-12
I_3_5 12
I_3_6 0
I_4_0 10
I_4_1 7.5384608256478629e-07
I_4_2 9.9999992461559266e+00
I_4_3 10
I_4_4 3.5527136788005009e-15
I_4_5 10
I_4_6 0
I_5_0 150
I_5_1 1.4999999434865364e+02
I_5_2 7.4999994346153642e+01
I_5_3 1.1307691238471307e-05
I_5_4 150
I_5_5 75
I_5_6 0
I_6_0 69
I_6_1 0
I_6_2 69
I_6_3 69
I_6_4 69
I_6_5 69
I_6_6 0
I_7_0 19
I_7_1 1.8999999551152403e+01
I_7_2 4.5084741499626383e-07
I_7_3 19
I_7_4 1.0230768260516594e-05
I_7_5 19
I_7_6 0
I_8_0 110
I_8_1 110
I_8_2 55
I_8_3 0
I_8_4 110
I_8_5 55
I_8_6 0
I_9_0 198
I_9_1 9.9000002347723736e+01
I_9_2 198
I_9_3 99
I_9_4 1.9799994669231273e+02
I_9_5 9.9000053307687267e+01
I_9_6 5.3307687267079018e-05
I_10_0 43
I_10_1 43
I_10_2 0
I_10_3 43
I_10_4 0
I_10_5 43
I_10_6 0
q_1_0_0 51
q_1_0_1 0
q_1_0_2 0
q_1_0_3 2.7461526725274328e-05
q_1_0_4 1.0199997253846414e+02
q_1_0_5 0
q_1_1_0 0
q_1_1_1 0
q_1_1_2 102
q_1_1_3 0
q_1_1_4 0
q_1_1_5 0
q_1_2_0 0
q_1_2_1 -1.3499587596865359e-21
q_1_2_2 0
q_1_2_3 0
q_1_2_4 0
q_1_2_5 0
q_2_0_0 2.3491523202440765e-06
q_2_0_1 0
q_2_0_2 7.7999999999999631e+01
q_2_0_3 0
q_2_0_4 0
q_2_0_5 0
q_2_1_0 0
q_2_1_1 0
q_2_1_2 0
q_2_1_3 0
q_2_1_4 156
q_2_1_5 0
q_2_2_0 0
q_2_2_1 1.5599999765084766e+02
q_2_2_2 3.6948222259525210e-13
q_2_2_3 0
q_2_2_4 0
q_2_2_5 0
q_3_0_0 12
q_3_0_1 0
q_3_0_2 0
q_3_0_3 0
q_3_0_4 2.3999999999998870e+01
q_3_0_5 0
q_3_1_0 0
q_3_1_1 0
q_3_1_2 24
q_3_1_3 0
q_3_1_4 0
q_3_1_5 0
q_3_2_0 0
q_3_2_1 -1.0587911840678754e-22
q_3_2_2 0
q_3_2_3 0
q_3_2_4 0
q_3_2_5 0
q_4_0_0 7.5384608256478629e-07
q_4_0_1 0
q_4_0_2 1.0000000753844073e+01
q_4_0_3 0
q_4_0_4 0
q_4_0_5 0
q_4_1_0 0
q_4_1_1 0
q_4_1_2 0
q_4_1_3 0
q_4_1_4 1.9999999999999996e+01
q_4_1_5 0
q_4_2_0 0
q_4_2_1 1.9999998492309846e+01
q_4_2_2 0
q_4_2_3 0
q_4_2_4 0
q_4_2_5 0
q_5_0_0 7.4999994346153656e+01
q_5_0_1 0
q_5_0_2 0
q_5_0_3 1.0984614345141583e-04
q_5_0_4 0
q_5_0_5 0
q_5_1_0 0
q_5_1_1 0
q_5_1_2 1.6961537596671355e-05
q_5_1_3 0
q_5_1_4 0
q_5_1_5 0
q_5_2_0 0
q_5_2_1 0
q_5_2_2 0
q_5_2_3 2.2499987884616530e+02
q_5_2_4 0
q_5_2_5 0
q_6_0_0 0
q_6_0_1 1.3799999672542648e+02
q_6_0_2 6.9000000000002956e+01
q_6_0_3 68.9999999999981
q_6_0_4 0
q_6_0_5 0
q_6_1_0 0
q_6_1_1 3.2745759615523505e-06
q_6_1_2 0
q_6_1_3 0
q_6_1_4 6.8999999999996476e+01
q_6_1_5 0
q_6_2_0 0
q_6_2_1 0
q_6_2_2 0
q_6_2_3 0
q_6_2_4 0
q_6_2_5 0
q_7_0_0 1.8999999580819065e+01
q_7_0_1 9.0169482999252765e-07
q_7_0_2 0
q_7_0_3 1.0230767367348003e-05
q_7_0_4 3.7999989769231739e+01
q_7_0_5 0
q_7_1_0 0
q_7_1_1 0
q_7_1_2 3.7999999549153479e+01
q_7_1_3 0
q_7_1_4 0
q_7_1_5 0
q_7_2_0 0
q_7_2_1 0
q_7_2_2 0
q_7_2_3 0
q_7_2_4 0
q_7_2_5 0
q_8_0_0 5.4999999999997954e+01
q_8_0_1 0
q_8_0_2 0
q_8_0_3 165
q_8_0_4 0
q_8_0_5 0
q_8_1_0 0
q_8_1_1 0
q_8_1_2 0
q_8_1_3 0
q_8_1_4 0
q_8_1_5 0
q_8_2_0 0
q_8_2_1 -1.6940658945086007e-21
q_8_2_2 0
q_8_2_3 0
q_8_2_4 0
q_8_2_5 0
q_9_0_0 2.3471523202440776e-06
q_9_0_1 0
q_9_0_2 0
q_9_0_3 0
q_9_0_4 0
q_9_0_5 0
q_9_1_0 0
q_9_1_1 1.9799999530169535e+02
q_9_1_2 0
q_9_1_3 1.9799994669231273e+02
q_9_1_4 0
q_9_1_5 0
q_9_2_0 0
q_9_2_1 2.3491523202440778e-06
q_9_2_2 0
q_9_2_3 0
q_9_2_4 1.0661537453415804e-04
q_9_2_5 0
q_10_0_0 43
q_10_0_1 0
q_10_0_2 86
q_10_0_3 0
q_10_0_4 86
q_10_0_5 0
q_10_1_0 0
q_10_1_1 0
q_10_1_2 0
q_10_1_3 0
q_10_1_4 0
q_10_1_5 0
q_10_2_0 0
q_10_2_1 0
q_10_2_2 0
q_10_2_3 0
q_10_2_4 0
q_10_2_5 0
y_0_0_0 1
y_0_0_1 1
y_0_0_2 1
y_0_0_3 1
y_0_0_4 1
y_0_0_5 0
y_0_1_0 0
y_0_1_1 1
y_0_1_2 1
y_0_1_3 9.9999946320517918e-01
y_0_1_4 1
y_0_1_5 0
y_0_2_0 0
y_0_2_1 1
y_0_2_2 0
y_0_2_3 9.9999946320517918e-01
y_0_2_4 5.3721148723771691e-07
y_0_2_5 0
y_1_0_0 1
y_1_0_1 0
y_1_0_2 0
y_1_0_3 5.3721148750809237e-07
y_1_0_4 1
y_1_0_5 0
y_1_1_0 0
y_1_1_1 0
y_1_1_2 1
y_1_1_3 0
y_1_1_4 0
y_1_1_5 0
y_1_2_0 0
y_1_2_1 0
y_1_2_2 0
y_1_2_3 0
y_1_2_4 0
y_1_2_5 0
y_2_0_0 3.0117337439026622e-08
y_2_0_1 0
y_2_0_2 1
y_2_0_3 0
y_2_0_4 0
y_2_0_5 0
y_2_1_0 0
y_2_1_1 0
y_2_1_2 0
y_2_1_3 0
y_2_1_4 1
y_2_1_5 0
y_2_2_0 0
y_2_2_1 1
y_2_2_2 0
y_2_2_3 0
y_2_2_4 0
y_2_2_5 0
y_3_0_0 1
y_3_0_1 0
y_3_0_2 0
y_3_0_3 0
y_3_0_4 1
y_3_0_5 0
y_3_1_0 0
y_3_1_1 0
y_3_1_2 1
y_3_1_3 0
y_3_1_4 0
y_3_1_5 0
y_3_2_0 0
y_3_2_1 0
y_3_2_2 0
y_3_2_3 0
y_3_2_4 0
y_3_2_5 0
y_4_0_0 7.5384608256478629e-08
y_4_0_1 0
y_4_0_2 1
y_4_0_3 0
y_4_0_4 0
y_4_0_5 0
y_4_1_0 0
y_4_1_1 0
y_4_1_2 0
y_4_1_3 0
y_4_1_4 1
y_4_1_5 0
y_4_2_0 0
y_4_2_1 9.9999992586549247e-01
y_4_2_2 0
y_4_2_3 0
y_4_2_4 0
y_4_2_5 0
y_5_0_0 0.999999924615382
y_5_0_1 0
y_5_0_2 0
y_5_0_3 5.3679482084027293e-07
y_5_0_4 0
y_5_0_5 0
y_5_1_0 0
y_5_1_1 0
y_5_1_2 7.5362389318539344e-08
y_5_1_3 0
y_5_1_4 0
y_5_1_5 0
y_5_2_0 0
y_5_2_1 0
y_5_2_2 0
y_5_2_3 9.9999946153851249e-01
y_5_2_4 0
y_5_2_5 0
y_6_0_0 0
y_6_0_1 9.9999997628569914e-01
y_6_0_2 1
y_6_0_3 1
y_6_0_4 0
y_6_0_5 0
y_6_1_0 0
y_6_1_1 2.3692579431538773e-08
y_6_1_2 0
y_6_1_3 0
y_6_1_4 1
y_6_1_5 0
y_6_2_0 0
y_6_2_1 0
y_6_2_2 0
y_6_2_3 0
y_6_2_4 0
y_6_2_5 0
y_7_0_0 9.9999997793784556e-01
y_7_0_1 2.3597232368224410e-08
y_7_0_2 0
y_7_0_3 5.3679482084027293e-07
y_7_0_4 1
y_7_0_5 0
y_7_1_0 0
y_7_1_1 0
y_7_1_2 1
y_7_1_3 0
y_7_1_4 0
y_7_1_5 0
y_7_2_0 0
y_7_2_1 0
y_7_2_2 0
y_7_2_3 0
y_7_2_4 0
y_7_2_5 0
y_8_0_0 9.9999999999996281e-01
y_8_0_1 0
y_8_0_2 0
y_8_0_3 1
y_8_0_4 0
y_8_0_5 0
y_8_1_0 0
y_8_1_1 0
y_8_1_2 0
y_8_1_3 0
y_8_1_4 0
y_8_1_5 0
y_8_2_0 0
y_8_2_1 0
y_8_2_2 0
y_8_2_3 0
y_8_2_4 0
y_8_2_5 0
y_9_0_0 2.3708609295394722e-08
y_9_0_1 0
y_9_0_2 0
y_9_0_3 0
y_9_0_4 0
y_9_0_5 0
y_9_1_0 0
y_9_1_1 9.9999997627118864e-01
y_9_1_2 0
y_9_1_3 9.9999946403851248e-01
y_9_1_4 0
y_9_1_5 0
y_9_2_0 0
y_9_2_1 2.1228811315596741e-08
y_9_2_2 0
y_9_2_3 0
y_9_2_4 5.3596148757078383e-07
y_9_2_5 0
y_10_0_0 1
y_10_0_1 0
y_10_0_2 1
y_10_0_3 0
y_10_0_4 1
y_10_0_5 0
y_10_1_0 0
y_10_1_1 0
y_10_1_2 0
y_10_1_3 0
y_10_1_4 0
y_10_1_5 0
y_10_2_0 0
y_10_2_1 0
y_10_2_2 0
y_10_2_3 0
y_10_2_4 0
y_10_2_5 0
x_0_1_0_0 0
x_0_1_0_1 0
x_0_1_0_2 0
x_0_1_0_3 0
x_0_1_0_4 0
x_0_1_0_5 0
x_0_1_1_0 0
x_0_1_1_1 0
x_0_1_1_2 1
x_0_1_1_3 0
x_0_1_1_4 0
x_0_1_1_5 0
x_0_1_2_0 0
x_0_1_2_1 0
x_0_1_2_2 0
x_0_1_2_3 0
x_0_1_2_4 0
x_0_1_2_5 0
x_0_2_0_0 0
x_0_2_0_1 0
x_0_2_0_2 0
x_0_2_0_3 0
x_0_2_0_4 0
x_0_2_0_5 0
x_0_2_1_0 0
x_0_2_1_1 0
x_0_2_1_2 0
x_0_2_1_3 0
x_0_2_1_4 0
x_0_2_1_5 0
x_0_2_2_0 0
x_0_2_2_1 1.0000000491556962e+00
x_0_2_2_2 0
x_0_2_2_3 0
x_0_2_2_4 0
x_0_2_2_5 0
x_0_3_0_0 0
x_0_3_0_1 0
x_0_3_0_2 0
x_0_3_0_3 0
x_0_3_0_4 0
x_0_3_0_5 0
x_0_3_1_0 0
x_0_3_1_1 0
x_0_3_1_2 0
x_0_3_1_3 0
x_0_3_1_4 0
x_0_3_1_5 0
x_0_3_2_0 0
x_0_3_2_1 0
x_0_3_2_2 0
x_0_3_2_3 0
x_0_3_2_4 0
x_0_3_2_5 0
x_0_4_0_0 0
x_0_4_0_1 0
x_0_4_0_2 0
x_0_4_0_3 0
x_0_4_0_4 0
x_0_4_0_5 0
x_0_4_1_0 0
x_0_4_1_1 0
x_0_4_1_2 0
x_0_4_1_3 0
x_0_4_1_4 1
x_0_4_1_5 0
x_0_4_2_0 0
x_0_4_2_1 9.9999990092013524e-01
x_0_4_2_2 0
x_0_4_2_3 0
x_0_4_2_4 0
x_0_4_2_5 0
x_0_5_0_0 0
x_0_5_0_1 0
x_0_5_0_2 0
x_0_5_0_3 0
x_0_5_0_4 0
x_0_5_0_5 0
x_0_5_1_0 0
x_0_5_1_1 0
x_0_5_1_2 0
x_0_5_1_3 0
x_0_5_1_4 0
x_0_5_1_5 0
x_0_5_2_0 0
x_0_5_2_1 0
x_0_5_2_2 0
x_0_5_2_3 1.9999989231227968e+00
x_0_5_2_4 0
x_0_5_2_5 0
x_0_6_0_0 -7.5310692811293318e-08
x_0_6_0_1 1.9999999526162735e+00
x_0_6_0_2 1
x_0_6_0_3 1
x_0_6_0_4 0
x_0_6_0_5 0
x_0_6_1_0 0
x_0_6_1_1 4.4124289297860150e-08
x_0_6_1_2 0
x_0_6_1_3 0
x_0_6_1_4 1
x_0_6_1_5 0
x_0_6_2_0 0
x_0_6_2_1 0
x_0_6_2_2 0
x_0_6_2_3 0
x_0_6_2_4 -6.6613381477509392e-16
x_0_6_2_5 0
x_0_7_0_0 1.0000000279269758e+00
x_0_7_0_1 4.5194464736448822e-08
x_0_7_0_2 0
x_0_7_0_3 5.3596153857719870e-07
x_0_7_0_4 1
x_0_7_0_5 0
x_0_7_1_0 0
x_0_7_1_1 0
x_0_7_1_2 1
x_0_7_1_3 0
x_0_7_1_4 0
x_0_7_1_5 0
x_0_7_2_0 0
x_0_7_2_1 0
x_0_7_2_2 0
x_0_7_2_3 0
x_0_7_2_4 0
x_0_7_2_5 0
x_0_8_0_0 1
x_0_8_0_1 0
x_0_8_0_2 0
x_0_8_0_3 9.9999946157409492e-01
x_0_8_0_4 0
x_0_8_0_5 0
x_0_8_1_0 0
x_0_8_1_1 0
x_0_8_1_2 0
x_0_8_1_3 0
x_0_8_1_4 0
x_0_8_1_5 0
x_0_8_2_0 0
x_0_8_2_1 0
x_0_8_2_2 0
x_0_8_2_3 0
x_0_8_2_4 0
x_0_8_2_5 0
x_0_9_0_0 4.5717050178269387e-08
x_0_9_0_1 0
x_0_9_0_2 0
x_0_9_0_3 0
x_0_9_0_4 0
x_0_9_0_5 0
x_0_9_1_0 0
x_0_9_1_1 1.9999999528462520e+00
x_0_9_1_2 0
x_0_9_1_3 1.9999989233808997e+00
x_0_9_1_4 0
x_0_9_1_5 0
x_0_9_2_0 0
x_0_9_2_1 4.7424168524205949e-08
x_0_9_2_2 0
x_0_9_2_3 0
x_0_9_2_4 1.0719229751415677e-06
x_0_9_2_5 0
x_0_10_0_0 0
x_0_10_0_1 0
x_0_10_0_2 1
x_0_10_0_3 0
x_0_10_0_4 1
x_0_10_0_5 0
x_0_10_1_0 0
x_0_10_1_1 0
x_0_10_1_2 0
x_0_10_1_3 0
x_0_10_1_4 0
x_0_10_1_5 0
x_0_10_2_0 0
x_0_10_2_1 0
x_0_10_2_2 0
x_0_10_2_3 0
x_0_10_2_4 0
x_0_10_2_5 0
x_1_2_0_0 0
x_1_2_0_1 0
x_1_2_0_2 0
x_1_2_0_3 0
x_1_2_0_4 0
x_1_2_0_5 0
x_1_2_1_0 0
x_1_2_1_1 0
x_1_2_1_2 0
x_1_2_1_3 0
x_1_2_1_4 0
x_1_2_1_5 0
x_1_2_2_0 0
x_1_2_2_1 0
x_1_2_2_2 0
x_1_2_2_3 0
x_1_2_2_4 0
x_1_2_2_5 0
x_1_3_0_0 1
x_1_3_0_1 0
x_1_3_0_2 0
x_1_3_0_3 -1.3234889800848443e-23
x_1_3_0_4 1
x_1_3_0_5 0
x_1_3_1_0 0
x_1_3_1_1 0
x_1_3_1_2 1
x_1_3_1_3 0
x_1_3_1_4 0
x_1_3_1_5 0
x_1_3_2_0 0
x_1_3_2_1 -2.6469779601696886e-23
x_1_3_2_2 0
x_1_3_2_3 0
x_1_3_2_4 0
x_1_3_2_5 0
x_1_4_0_0 0
x_1_4_0_1 0
x_1_4_0_2 0
x_1_4_0_3 0
x_1_4_0_4 0
x_1_4_0_5 0
x_1_4_1_0 0
x_1_4_1_1 0
x_1_4_1_2 0
x_1_4_1_3 0
x_1_4_1_4 0
x_1_4_1_5 0
x_1_4_2_0 0
x_1_4_2_1 0
x_1_4_2_2 0
x_1_4_2_3 0
x_1_4_2_4 0
x_1_4_2_5 0
x_1_5_0_0 0.999999924615382
x_1_5_0_1 0
x_1_5_0_2 0
x_1_5_0_3 5.3346148750693959e-07
x_1_5_0_4 0
x_1_5_0_5 0
x_1_5_1_0 0
x_1_5_1_1 0
x_1_5_1_2 0
x_1_5_1_3 0
x_1_5_1_4 0
x_1_5_1_5 0
x_1_5_2_0 0
x_1_5_2_1 0
x_1_5_2_2 0
x_1_5_2_3 0
x_1_5_2_4 0
x_1_5_2_5 0
x_1_6_0_0 7.3384618026437337e-08
x_1_6_0_1 0
x_1_6_0_2 0
x_1_6_0_3 0
x_1_6_0_4 0
x_1_6_0_5 0
x_1_6_1_0 0
x_1_6_1_1 0
x_1_6_1_2 0
x_1_6_1_3 0
x_1_6_1_4 0
x_1_6_1_5 0
x_1_6_2_0 0
x_1_6_2_1 0
x_1_6_2_2 0
x_1_6_2_3 0
x_1_6_2_4 0
x_1_6_2_5 0
x_1_7_0_0 0
x_1_7_0_1 0
x_1_7_0_2 0
x_1_7_0_3 0
x_1_7_0_4 1
x_1_7_0_5 0
x_1_7_1_0 0
x_1_7_1_1 0
x_1_7_1_2 0
x_1_7_1_3 0
x_1_7_1_4 0
x_1_7_1_5 0
x_1_7_2_0 0
x_1_7_2_1 0
x_1_7_2_2 0
x_1_7_2_3 0
x_1_7_2_4 0
x_1_7_2_5 0
x_1_8_0_0 0
x_1_8_0_1 0
x_1_8_0_2 0
x_1_8_0_3 5.3846148750924527e-07
x_1_8_0_4 0
x_1_8_0_5 0
x_1_8_1_0 0
x_1_8_1_1 0
x_1_8_1_2 0
x_1_8_1_3 0
x_1_8_1_4 0
x_1_8_1_5 0
x_1_8_2_0 0
x_1_8_2_1 -2.6469779601696886e-23
x_1_8_2_2 0
x_1_8_2_3 0
x_1_8_2_4 0
x_1_8_2_5 0
x_1_9_0_0 0
x_1_9_0_1 0
x_1_9_0_2 0
x_1_9_0_3 0
x_1_9_0_4 0
x_1_9_0_5 0
x_1_9_1_0 0
x_1_9_1_1 0
x_1_9_1_2 0
x_1_9_1_3 0
x_1_9_1_4 0
x_1_9_1_5 0
x_1_9_2_0 0
x_1_9_2_1 0
x_1_9_2_2 0
x_1_9_2_3 0
x_1_9_2_4 0
x_1_9_2_5 0
x_1_10_0_0 0
x_1_10_0_1 0
x_1_10_0_2 0
x_1_10_0_3 0
x_1_10_0_4 0
x_1_10_0_5 0
x_1_10_1_0 0
x_1_10_1_1 0
x_1_10_1_2 0
x_1_10_1_3 0
x_1_10_1_4 0
x_1_10_1_5 0
x_1_10_2_0 0
x_1_10_2_1 0
x_1_10_2_2 0
x_1_10_2_3 0
x_1_10_2_4 0
x_1_10_2_5 0
x_2_3_0_0 0
x_2_3_0_1 0
x_2_3_0_2 0
x_2_3_0_3 0
x_2_3_0_4 0
x_2_3_0_5 0
x_2_3_1_0 0
x_2_3_1_1 0
x_2_3_1_2 0
x_2_3_1_3 0
x_2_3_1_4 0
x_2_3_1_5 0
x_2_3_2_0 0
x_2_3_2_1 0
x_2_3_2_2 0
x_2_3_2_3 0
x_2_3_2_4 0
x_2_3_2_5 0
x_2_4_0_0 1.0383527902883824e-07
x_2_4_0_1 0
x_2_4_0_2 1
x_2_4_0_3 0
x_2_4_0_4 0
x_2_4_0_5 0
x_2_4_1_0 0
x_2_4_1_1 0
x_2_4_1_2 0
x_2_4_1_3 0
x_2_4_1_4 1
x_2_4_1_5 0
x_2_4_2_0 0
x_2_4_2_1 9.9999994834430372e-01
x_2_4_2_2 0
x_2_4_2_3 0
x_2_4_2_4 0
x_2_4_2_5 0
x_2_5_0_0 0
x_2_5_0_1 0
x_2_5_0_2 0
x_2_5_0_3 0
x_2_5_0_4 0
x_2_5_0_5 0
x_2_5_1_0 0
x_2_5_1_1 0
x_2_5_1_2 0
x_2_5_1_3 0
x_2_5_1_4 0
x_2_5_1_5 0
x_2_5_2_0 0
x_2_5_2_1 0
x_2_5_2_2 0
x_2_5_2_3 0
x_2_5_2_4 0
x_2_5_2_5 0
x_2_6_0_0 -4.5267270817449022e-08
x_2_6_0_1 0
x_2_6_0_2 0
x_2_6_0_3 0
x_2_6_0_4 0
x_2_6_0_5 0
x_2_6_1_0 0
x_2_6_1_1 0
x_2_6_1_2 0
x_2_6_1_3 0
x_2_6_1_4 1
x_2_6_1_5 0
x_2_6_2_0 0
x_2_6_2_1 0
x_2_6_2_2 0
x_2_6_2_3 0
x_2_6_2_4 0
x_2_6_2_5 0
x_2_7_0_0 0
x_2_7_0_1 0
x_2_7_0_2 0
x_2_7_0_3 0
x_2_7_0_4 0
x_2_7_0_5 0
x_2_7_1_0 0
x_2_7_1_1 0
x_2_7_1_2 0
x_2_7_1_3 0
x_2_7_1_4 0
x_2_7_1_5 0
x_2_7_2_0 0
x_2_7_2_1 0
x_2_7_2_2 0
x_2_7_2_3 0
x_2_7_2_4 0
x_2_7_2_5 0
x_2_8_0_0 0
x_2_8_0_1 0
x_2_8_0_2 0
x_2_8_0_3 0
x_2_8_0_4 0
x_2_8_0_5 0
x_2_8_1_0 0
x_2_8_1_1 0
x_2_8_1_2 0
x_2_8_1_3 0
x_2_8_1_4 0
x_2_8_1_5 0
x_2_8_2_0 0
x_2_8_2_1 0
x_2_8_2_2 0
x_2_8_2_3 0
x_2_8_2_4 0
x_2_8_2_5 0
x_2_9_0_0 0
x_2_9_0_1 0
x_2_9_0_2 0
x_2_9_0_3 0
x_2_9_0_4 0
x_2_9_0_5 0
x_2_9_1_0 0
x_2_9_1_1 0
x_2_9_1_2 0
x_2_9_1_3 0
x_2_9_1_4 0
x_2_9_1_5 0
x_2_9_2_0 0
x_2_9_2_1 0
x_2_9_2_2 0
x_2_9_2_3 0
x_2_9_2_4 0
x_2_9_2_5 0
x_2_10_0_0 0
x_2_10_0_1 0
x_2_10_0_2 1
x_2_10_0_3 0
x_2_10_0_4 0
x_2_10_0_5 0
x_2_10_1_0 0
x_2_10_1_1 0
x_2_10_1_2 0
x_2_10_1_3 0
x_2_10_1_4 0
x_2_10_1_5 0
x_2_10_2_0 0
x_2_10_2_1 -2.6469779601696886e-23
x_2_10_2_2 0
x_2_10_2_3 0
x_2_10_2_4 0
x_2_10_2_5 0
x_3_4_0_0 0
x_3_4_0_1 0
x_3_4_0_2 0
x_3_4_0_3 0
x_3_4_0_4 0
x_3_4_0_5 0
x_3_4_1_0 0
x_3_4_1_1 0
x_3_4_1_2 0
x_3_4_1_3 0
x_3_4_1_4 0
x_3_4_1_5 0
x_3_4_2_0 0
x_3_4_2_1 0
x_3_4_2_2 0
x_3_4_2_3 0
x_3_4_2_4 0
x_3_4_2_5 0
x_3_5_0_0 0
x_3_5_0_1 0
x_3_5_0_2 0
x_3_5_0_3 0
x_3_5_0_4 0
x_3_5_0_5 0
x_3_5_1_0 0
x_3_5_1_1 0
x_3_5_1_2 7.3384561183019760e-08
x_3_5_1_3 0
x_3_5_1_4 0
x_3_5_1_5 0
x_3_5_2_0 0
x_3_5_2_1 0
x_3_5_2_2 0
x_3_5_2_3 0
x_3_5_2_4 0
x_3_5_2_5 0
x_3_6_0_0 0
x_3_6_0_1 0
x_3_6_0_2 0
x_3_6_0_3 0
x_3_6_0_4 0
x_3_6_0_5 0
x_3_6_1_0 0
x_3_6_1_1 0
x_3_6_1_2 0
x_3_6_1_3 0
x_3_6_1_4 0
x_3_6_1_5 0
x_3_6_2_0 0
x_3_6_2_1 0
x_3_6_2_2 0
x_3_6_2_3 0
x_3_6_2_4 0
x_3_6_2_5 0
x_3_7_0_0 0
x_3_7_0_1 0
x_3_7_0_2 0
x_3_7_0_3 0
x_3_7_0_4 0
x_3_7_0_5 0
x_3_7_1_0 0
x_3_7_1_1 0
x_3_7_1_2 9.9999992465342313e-01
x_3_7_1_3 0
x_3_7_1_4 0
x_3_7_1_5 0
x_3_7_2_0 0
x_3_7_2_1 0
x_3_7_2_2 0
x_3_7_2_3 0
x_3_7_2_4 0
x_3_7_2_5 0
x_3_8_0_0 0
x_3_8_0_1 0
x_3_8_0_2 0
x_3_8_0_3 0
x_3_8_0_4 0
x_3_8_0_5 0
x_3_8_1_0 0
x_3_8_1_1 0
x_3_8_1_2 0
x_3_8_1_3 0
x_3_8_1_4 0
x_3_8_1_5 0
x_3_8_2_0 0
x_3_8_2_1 0
x_3_8_2_2 0
x_3_8_2_3 0
x_3_8_2_4 0
x_3_8_2_5 0
x_3_9_0_0 0
x_3_9_0_1 0
x_3_9_0_2 0
x_3_9_0_3 0
x_3_9_0_4 0
x_3_9_0_5 0
x_3_9_1_0 0
x_3_9_1_1 0
x_3_9_1_2 0
x_3_9_1_3 0
x_3_9_1_4 0
x_3_9_1_5 0
x_3_9_2_0 0
x_3_9_2_1 0
x_3_9_2_2 0
x_3_9_2_3 0
x_3_9_2_4 0
x_3_9_2_5 0
x_3_10_0_0 0.999999999999963
x_3_10_0_1 0
x_3_10_0_2 0
x_3_10_0_3 0
x_3_10_0_4 1
x_3_10_0_5 0
x_3_10_1_0 0
x_3_10_1_1 0
x_3_10_1_2 0
x_3_10_1_3 0
x_3_10_1_4 0
x_3_10_1_5 0
x_3_10_2_0 0
x_3_10_2_1 -2.6469779601696886e-23
x_3_10_2_2 0
x_3_10_2_3 0
x_3_10_2_4 0
x_3_10_2_5 0
x_4_5_0_0 0
x_4_5_0_1 0
x_4_5_0_2 0
x_4_5_0_3 0
x_4_5_0_4 0
x_4_5_0_5 0
x_4_5_1_0 0
x_4_5_1_1 0
x_4_5_1_2 0
x_4_5_1_3 0
x_4_5_1_4 0
x_4_5_1_5 0
x_4_5_2_0 0
x_4_5_2_1 0
x_4_5_2_2 0
x_4_5_2_3 0
x_4_5_2_4 0
x_4_5_2_5 0
x_4_6_0_0 4.5267270817452351e-08
x_4_6_0_1 0
x_4_6_0_2 1
x_4_6_0_3 0
x_4_6_0_4 0
x_4_6_0_5 0
x_4_6_1_0 0
x_4_6_1_1 0
x_4_6_1_2 0
x_4_6_1_3 0
x_4_6_1_4 0
x_4_6_1_5 0
x_4_6_2_0 0
x_4_6_2_1 0
x_4_6_2_2 0
x_4_6_2_3 0
x_4_6_2_4 0
x_4_6_2_5 0
x_4_7_0_0 0
x_4_7_0_1 0
x_4_7_0_2 0
x_4_7_0_3 0
x_4_7_0_4 0
x_4_7_0_5 0
x_4_7_1_0 0
x_4_7_1_1 0
x_4_7_1_2 0
x_4_7_1_3 0
x_4_7_1_4 0
x_4_7_1_5 0
x_4_7_2_0 0
x_4_7_2_1 0
x_4_7_2_2 0
x_4_7_2_3 0
x_4_7_2_4 0
x_4_7_2_5 0
x_4_8_0_0 0
x_4_8_0_1 0
x_4_8_0_2 0
x_4_8_0_3 0
x_4_8_0_4 0
x_4_8_0_5 0
x_4_8_1_0 0
x_4_8_1_1 0
x_4_8_1_2 0
x_4_8_1_3 0
x_4_8_1_4 0
x_4_8_1_5 0
x_4_8_2_0 0
x_4_8_2_1 -2.6469779601696886e-23
x_4_8_2_2 0
x_4_8_2_3 0
x_4_8_2_4 0
x_4_8_2_5 0
x_4_9_0_0 0
x_4_9_0_1 0
x_4_9_0_2 0
x_4_9_0_3 0
x_4_9_0_4 0
x_4_9_0_5 0
x_4_9_1_0 0
x_4_9_1_1 0
x_4_9_1_2 0
x_4_9_1_3 0
x_4_9_1_4 0
x_4_9_1_5 0
x_4_9_2_0 0
x_4_9_2_1 0
x_4_9_2_2 0
x_4_9_2_3 0
x_4_9_2_4 0
x_4_9_2_5 0
x_4_10_0_0 0
x_4_10_0_1 0
x_4_10_0_2 0
x_4_10_0_3 0
x_4_10_0_4 0
x_4_10_0_5 0
x_4_10_1_0 0
x_4_10_1_1 0
x_4_10_1_2 0
x_4_10_1_3 0
x_4_10_1_4 0
x_4_10_1_5 0
x_4_10_2_0 0
x_4_10_2_1 0
x_4_10_2_2 0
x_4_10_2_3 0
x_4_10_2_4 0
x_4_10_2_5 0
x_5_6_0_0 0
x_5_6_0_1 0
x_5_6_0_2 0
x_5_6_0_3 0
x_5_6_0_4 0
x_5_6_0_5 0
x_5_6_1_0 0
x_5_6_1_1 0
x_5_6_1_2 0
x_5_6_1_3 0
x_5_6_1_4 0
x_5_6_1_5 0
x_5_6_2_0 0
x_5_6_2_1 0
x_5_6_2_2 0
x_5_6_2_3 0
x_5_6_2_4 0
x_5_6_2_5 0
x_5_7_0_0 0.999999924615382
x_5_7_0_1 1.6543612251060553e-24
x_5_7_0_2 0
x_5_7_0_3 5.3679482084027293e-07
x_5_7_0_4 0
x_5_7_0_5 0
x_5_7_1_0 0
x_5_7_1_1 0
x_5_7_1_2 7.4840217454058940e-08
x_5_7_1_3 0
x_5_7_1_4 0
x_5_7_1_5 0
x_5_7_2_0 0
x_5_7_2_1 0
x_5_7_2_2 0
x_5_7_2_3 0
x_5_7_2_4 0
x_5_7_2_5 0
x_5_8_0_0 0
x_5_8_0_1 0
x_5_8_0_2 0
x_5_8_0_3 0
x_5_8_0_4 0
x_5_8_0_5 0
x_5_8_1_0 0
x_5_8_1_1 0
x_5_8_1_2 0
x_5_8_1_3 0
x_5_8_1_4 0
x_5_8_1_5 0
x_5_8_2_0 0
x_5_8_2_1 0
x_5_8_2_2 0
x_5_8_2_3 0
x_5_8_2_4 0
x_5_8_2_5 0
x_5_9_0_0 0
x_5_9_0_1 0
x_5_9_0_2 0
x_5_9_0_3 0
x_5_9_0_4 0
x_5_9_0_5 0
x_5_9_1_0 0
x_5_9_1_1 0
x_5_9_1_2 0
x_5_9_1_3 0
x_5_9_1_4 0
x_5_9_1_5 0
x_5_9_2_0 0
x_5_9_2_1 0
x_5_9_2_2 0
x_5_9_2_3 0
x_5_9_2_4 0
x_5_9_2_5 0
x_5_10_0_0 0
x_5_10_0_1 0
x_5_10_0_2 0
x_5_10_0_3 0
x_5_10_0_4 0
x_5_10_0_5 0
x_5_10_1_0 0
x_5_10_1_1 0
x_5_10_1_2 0
x_5_10_1_3 0
x_5_10_1_4 0
x_5_10_1_5 0
x_5_10_2_0 0
x_5_10_2_1 0
x_5_10_2_2 0
x_5_10_2_3 0
x_5_10_2_4 0
x_5_10_2_5 0
x_6_7_0_0 0
x_6_7_0_1 0
x_6_7_0_2 0
x_6_7_0_3 0
x_6_7_0_4 0
x_6_7_0_5 0
x_6_7_1_0 0
x_6_7_1_1 0
x_6_7_1_2 0
x_6_7_1_3 0
x_6_7_1_4 0
x_6_7_1_5 0
x_6_7_2_0 0
x_6_7_2_1 0
x_6_7_2_2 0
x_6_7_2_3 0
x_6_7_2_4 0
x_6_7_2_5 0
x_6_8_0_0 0
x_6_8_0_1 0
x_6_8_0_2 0
x_6_8_0_3 1
x_6_8_0_4 0
x_6_8_0_5 0
x_6_8_1_0 0
x_6_8_1_1 0
x_6_8_1_2 0
x_6_8_1_3 0
x_6_8_1_4 0
x_6_8_1_5 0
x_6_8_2_0 0
x_6_8_2_1 0
x_6_8_2_2 0
x_6_8_2_3 0
x_6_8_2_4 0
x_6_8_2_5 0
x_6_9_0_0 0
x_6_9_0_1 0
x_6_9_0_2 0
x_6_9_0_3 0
x_6_9_0_4 0
x_6_9_0_5 0
x_6_9_1_0 0
x_6_9_1_1 0
x_6_9_1_2 0
x_6_9_1_3 0
x_6_9_1_4 0
x_6_9_1_5 0
x_6_9_2_0 0
x_6_9_2_1 0
x_6_9_2_2 0
x_6_9_2_3 0
x_6_9_2_4 0
x_6_9_2_5 0
x_6_10_0_0 0
x_6_10_0_1 0
x_6_10_0_2 0
x_6_10_0_3 0
x_6_10_0_4 0
x_6_10_0_5 0
x_6_10_1_0 0
x_6_10_1_1 0
x_6_10_1_2 0
x_6_10_1_3 0
x_6_10_1_4 0
x_6_10_1_5 0
x_6_10_2_0 0
x_6_10_2_1 0
x_6_10_2_2 0
x_6_10_2_3 0
x_6_10_2_4 0
x_6_10_2_5 0
x_7_8_0_0 0
x_7_8_0_1 1.6543612251060553e-24
x_7_8_0_2 0
x_7_8_0_3 0
x_7_8_0_4 0
x_7_8_0_5 0
x_7_8_1_0 0
x_7_8_1_1 0
x_7_8_1_2 0
x_7_8_1_3 0
x_7_8_1_4 0
x_7_8_1_5 0
x_7_8_2_0 0
x_7_8_2_1 0
x_7_8_2_2 0
x_7_8_2_3 0
x_7_8_2_4 0
x_7_8_2_5 0
x_7_9_0_0 0
x_7_9_0_1 0
x_7_9_0_2 0
x_7_9_0_3 0
x_7_9_0_4 0
x_7_9_0_5 0
x_7_9_1_0 0
x_7_9_1_1 0
x_7_9_1_2 0
x_7_9_1_3 0
x_7_9_1_4 0
x_7_9_1_5 0
x_7_9_2_0 0
x_7_9_2_1 0
x_7_9_2_2 0
x_7_9_2_3 0
x_7_9_2_4 0
x_7_9_2_5 0
x_7_10_0_0 0
x_7_10_0_1 0
x_7_10_0_2 0
x_7_10_0_3 0
x_7_10_0_4 0
x_7_10_0_5 0
x_7_10_1_0 0
x_7_10_1_1 0
x_7_10_1_2 0
x_7_10_1_3 0
x_7_10_1_4 0
x_7_10_1_5 0
x_7_10_2_0 0
x_7_10_2_1 0
x_7_10_2_2 0
x_7_10_2_3 0
x_7_10_2_4 0
x_7_10_2_5 0
x_8_9_0_0 0
x_8_9_0_1 0
x_8_9_0_2 0
x_8_9_0_3 0
x_8_9_0_4 0
x_8_9_0_5 0
x_8_9_1_0 0
x_8_9_1_1 0
x_8_9_1_2 0
x_8_9_1_3 0
x_8_9_1_4 0
x_8_9_1_5 0
x_8_9_2_0 0
x_8_9_2_1 0
x_8_9_2_2 0
x_8_9_2_3 0
x_8_9_2_4 0
x_8_9_2_5 0
x_8_10_0_0 1
x_8_10_0_1 0
x_8_10_0_2 0
x_8_10_0_3 0
x_8_10_0_4 0
x_8_10_0_5 0
x_8_10_1_0 0
x_8_10_1_1 0
x_8_10_1_2 0
x_8_10_1_3 0
x_8_10_1_4 0
x_8_10_1_5 0
x_8_10_2_0 0
x_8_10_2_1 0
x_8_10_2_2 0
x_8_10_2_3 0
x_8_10_2_4 0
x_8_10_2_5 0
x_9_10_0_0 0
x_9_10_0_1 0
x_9_10_0_2 0
x_9_10_0_3 0
x_9_10_0_4 0
x_9_10_0_5 0
x_9_10_1_0 0
x_9_10_1_1 0
x_9_10_1_2 0
x_9_10_1_3 0
x_9_10_1_4 0
x_9_10_1_5 0
x_9_10_2_0 0
x_9_10_2_1 0
x_9_10_2_2 0
x_9_10_2_3 0
x_9_10_2_4 0
x_9_10_2_5 0
